NAME : instances/clustered-mixed-tsp/instance-80.tsp
COMMENT : No Comment
TYPE : TSP
DIMENSION: 48
EDGE_WEIGHT_TYPE : EUC_2D
NODE_COORD_SECTION
1 896 64 
2 340 120 
3 669 147 
4 673 378 
5 669 606 
6 706 427 
7 763 749 
8 268 133 
9 646 953 
10 1061 890 
11 -92 131 
12 -96 543 
13 623 132 
14 -142 1106 
15 669 -8 
16 354 110 
17 264 111 
18 702 251 
19 540 -80 
20 213 449 
21 22 241 
22 450 94 
23 539 460 
24 188 451 
25 220 424 
26 981 873 
27 200 530 
28 597 112 
29 326 312 
30 701 207 
31 151 167 
32 102 1136 
33 700 5 
34 679 -51 
35 359 165 
36 706 839 
37 663 403 
38 515 278 
39 1087 622 
40 -1 361 
41 470 169 
42 388 172 
43 723 182 
44 -114 718 
45 444 429 
46 741 641 
47 262 177 
48 770 91 
EOF
